(declare-fun v12 () (_ BitVec 6))
(declare-fun v21 () (_ BitVec 16))
(assert
(let (($e7 (_ bv5 3)))
(let (($e17 (_ bv1 4)))
(let (($e29 (_ bv31 5)))
(let (($e32 (_ bv4095 12)))
(let (($e527 (concat $e7   $e7)))
(let (($e528 (bvand v12 $e527)))
(let (($e849 (concat $e32  $e17)))
(let (($e850      (= $e849 v21)         ))
(let (($e1051 (concat $e29   $e850)))
(let (($e1052 (bvand $e528 $e1051)))
              (ite        $e850   $e528 $e1052)
                                                                                                                                                                                                                                                                                                                                                                                                                                                                                                                                                                                                                                                                                                                                                                                                                                                                                                                                                                                                                                                                                                                                                                                                                                                                                                                                                                                                                                                                                                                                                                                                                                                                                                                                                                                                                                                                                                                                                                                                                                                                                                                                                                                                                                                                                                                                                                                                                                                                                                                                                                                                                                                                                                                                                                                                                                                                                                                                                                                                                                                                                                                                                                                                                                                                                                                                                                                                                                                                                                                                                                                                                                                                                                                                                                                                                                                                                                                                                                                                                                           ))                                                                                                                                                                                                        ))                                                                                                                                                                                                                                                                                                                                ))                                                                                                                                                                                                                                                                                                                                                                                                                                                                                   )  )           )         )      )
